purificationplants/purificationplants.sol
CPLEX 11.2.0: optimal integer solution; objective 9
3 MIP simplex iterations
0 branch-and-bound nodes
x [*] :=
 1  0
 2  0
 3  0
 4  0
 5  0
 6  1
 7  1
 8  0
 9  0
10  0
11  0
12  0
;

CPLEX 11.2.0: optimal integer solution; objective 12
6 MIP simplex iterations
0 branch-and-bound nodes
x [*] :=
 1  0
 2  0
 3  0
 4  0
 5  0
 6  0
 7  1
 8  0
 9  0
10  0
11  1
12  0
;

CPLEX 11.2.0: optimal integer solution; objective 15
3 MIP simplex iterations
0 branch-and-bound nodes
x [*] :=
 1  0
 2  0
 3  0
 4  1
 5  0
 6  0
 7  1
 8  0
 9  0
10  0
11  1
12  0
;

